&BANDS
outdir = './out'
prefix = 'gr_300K'
filband = 'gr.bands'
/
